p cnf 511
-7 -161
-8 -164
-9 -167
-10 -170
-11 -173
-12 -176
-13 177
-14 178
-15 179
-16 180
-17 181
-18 182
-19 -8
-19 -9
8 9 19
-20 -10
-20 -11
10 11 20
-21 -12
-21 -13
12 13 21
-22 -14
-22 -15
14 15 22
-23 -16
-23 -17
16 17 23
-24 19
-24 20
-19 -20 24
-25 21
-25 22
-21 -22 25
-26 -18
-26 23
18 -23 26
-27 24
-27 25
-24 -25 27
-28 26
-28 27
-26 -27 28
-29 -7
-29 8
7 -8 29
-30 7
-30 -8
-7 8 30
-31 -29
-31 -30
29 30 31
-32 7
-32 8
-7 -8 32
-33 -7
-33 -31
7 31 33
-34 7
-34 31
-7 -31 34
-35 -33
-35 -34
33 34 35
-36 7
-36 -31
-7 31 36
-37 -32
-37 -36
32 36 37
-38 -8
-38 9
8 -9 38
-39 8
-39 -9
-8 9 39
-40 -38
-40 -39
38 39 40
-41 8
-41 9
-8 -9 41
-42 37
-42 -40
-37 40 42
-43 -37
-43 40
37 -40 43
-44 -42
-44 -43
42 43 44
-45 -37
-45 -40
37 40 45
-46 -41
-46 -45
41 45 46
-47 -9
-47 10
9 -10 47
-48 9
-48 -10
-9 10 48
-49 -47
-49 -48
47 48 49
-50 9
-50 10
-9 -10 50
-51 46
-51 -49
-46 49 51
-52 -46
-52 49
46 -49 52
-53 -51
-53 -52
51 52 53
-54 -46
-54 -49
46 49 54
-55 -50
-55 -54
50 54 55
-56 -10
-56 11
10 -11 56
-57 10
-57 -11
-10 11 57
-58 -56
-58 -57
56 57 58
-59 10
-59 11
-10 -11 59
-60 55
-60 -58
-55 58 60
-61 -55
-61 58
55 -58 61
-62 -60
-62 -61
60 61 62
-63 -55
-63 -58
55 58 63
-64 -59
-64 -63
59 63 64
-65 -11
-65 12
11 -12 65
-66 11
-66 -12
-11 12 66
-67 -65
-67 -66
65 66 67
-68 11
-68 12
-11 -12 68
-69 64
-69 -67
-64 67 69
-70 -64
-70 67
64 -67 70
-71 -69
-71 -70
69 70 71
-72 -64
-72 -67
64 67 72
-73 -68
-73 -72
68 72 73
-74 -12
-74 13
12 -13 74
-75 12
-75 -13
-12 13 75
-76 -74
-76 -75
74 75 76
-77 12
-77 13
-12 -13 77
-78 73
-78 -76
-73 76 78
-79 -73
-79 76
73 -76 79
-80 -78
-80 -79
78 79 80
-81 -73
-81 -76
73 76 81
-82 -77
-82 -81
77 81 82
-83 -13
-83 14
13 -14 83
-84 13
-84 -14
-13 14 84
-85 -83
-85 -84
83 84 85
-86 13
-86 14
-13 -14 86
-87 82
-87 -85
-82 85 87
-88 -82
-88 85
82 -85 88
-89 -87
-89 -88
87 88 89
-90 -82
-90 -85
82 85 90
-91 -86
-91 -90
86 90 91
-92 -14
-92 15
14 -15 92
-93 14
-93 -15
-14 15 93
-94 -92
-94 -93
92 93 94
-95 14
-95 15
-14 -15 95
-96 91
-96 -94
-91 94 96
-97 -91
-97 94
91 -94 97
-98 -96
-98 -97
96 97 98
-99 -91
-99 -94
91 94 99
-100 -95
-100 -99
95 99 100
-101 -15
-101 16
15 -16 101
-102 15
-102 -16
-15 16 102
-103 -101
-103 -102
101 102 103
-104 15
-104 16
-15 -16 104
-105 100
-105 -103
-100 103 105
-106 -100
-106 103
100 -103 106
-107 -105
-107 -106
105 106 107
-108 -100
-108 -103
100 103 108
-109 -104
-109 -108
104 108 109
-110 -16
-110 17
16 -17 110
-111 16
-111 -17
-16 17 111
-112 -110
-112 -111
110 111 112
-113 16
-113 17
-16 -17 113
-114 109
-114 -112
-109 112 114
-115 -109
-115 112
109 -112 115
-116 -114
-116 -115
114 115 116
-117 -109
-117 -112
109 112 117
-118 -113
-118 -117
113 117 118
-119 -17
-119 18
17 -18 119
-120 17
-120 -18
-17 18 120
-121 -119
-121 -120
119 120 121
-122 17
-122 18
-17 -18 122
-123 118
-123 -121
-118 121 123
-124 -118
-124 121
118 -121 124
-125 -123
-125 -124
123 124 125
-126 -118
-126 -121
118 121 126
-127 -122
-127 -126
122 126 127
-128 7
-128 -35
-7 35 128
-129 -7
-129 9
7 -9 129
-130 -128
-130 -129
128 129 130
-131 7
-131 -44
-7 44 131
-132 -7
-132 10
7 -10 132
-133 -131
-133 -132
131 132 133
-134 7
-134 -53
-7 53 134
-135 -7
-135 11
7 -11 135
-136 -134
-136 -135
134 135 136
-137 7
-137 -62
-7 62 137
-138 -7
-138 12
7 -12 138
-139 -137
-139 -138
137 138 139
-140 7
-140 -71
-7 71 140
-141 -7
-141 13
7 -13 141
-142 -140
-142 -141
140 141 142
-143 7
-143 -80
-7 80 143
-144 -7
-144 14
7 -14 144
-145 -143
-145 -144
143 144 145
-146 7
-146 -89
-7 89 146
-147 -7
-147 15
7 -15 147
-148 -146
-148 -147
146 147 148
-149 7
-149 -98
-7 98 149
-150 -7
-150 16
7 -16 150
-151 -149
-151 -150
149 150 151
-152 7
-152 -107
-7 107 152
-153 -7
-153 17
7 -17 153
-154 -152
-154 -153
152 153 154
-155 7
-155 -116
-7 116 155
-156 -7
-156 18
7 -18 156
-157 -155
-157 -156
155 156 157
-158 7
-158 -125
-7 125 158
-159 1
-159 28
-1 -28 159
-160 -28
-160 29
28 -29 160
-161 -159
-161 -160
159 160 161
-162 2
-162 28
-2 -28 162
-163 -28
-163 -130
28 130 163
-164 -162
-164 -163
162 163 164
-165 3
-165 28
-3 -28 165
-166 -28
-166 -133
28 133 166
-167 -165
-167 -166
165 166 167
-168 4
-168 28
-4 -28 168
-169 -28
-169 -136
28 136 169
-170 -168
-170 -169
168 169 170
-171 5
-171 28
-5 -28 171
-172 -28
-172 -139
28 139 172
-173 -171
-173 -172
171 172 173
-174 6
-174 28
-6 -28 174
-175 -28
-175 -142
28 142 175
-176 -174
-176 -175
174 175 176
-177 -28
-177 -145
28 145 177
-178 -28
-178 -148
28 148 178
-179 -28
-179 -151
28 151 179
-180 -28
-180 -154
28 154 180
-181 -28
-181 -157
28 157 181
-182 -28
-182 158
28 -158 182
-183 -18
-183 127
18 -127 183
-184 7
-184 -183
-7 183 184
184
